num_bands = 72
num_wann  = 48
exclude_bands = 1-20

restart = plot

spinors = .true.

begin projections
S:p
Fe:s,p,d
Cr:s,p,d
end projections

bands_plot = .true.
bands_num_points = 500

begin unit_cell_cart
ang
   2.9843235   -1.7230000    0.0000000
   0.0000000    3.4460000    0.0000000
   0.0000000    0.0000000    5.7430000
end unit_cell_cart

begin atoms_frac
Fe   0.000000000000000   0.000000000000000   0.000000000000000 
Cr   0.000000000000000   0.000000000000000   0.500000000000000 
 S   0.333333333333333   0.666666666666667   0.250000000000000 
 S   0.666666666666667   0.333333333333333   0.750000000000000 
end atoms_frac

mp_grid: 10 10 5

begin kpoints
  0.00000000  0.00000000  0.00000000  2.000000e-03
  0.00000000  0.00000000  0.20000000  2.000000e-03
  0.00000000  0.00000000  0.40000000  2.000000e-03
  0.00000000  0.00000000  0.60000000  2.000000e-03
  0.00000000  0.00000000  0.80000000  2.000000e-03
  0.00000000  0.10000000  0.00000000  2.000000e-03
  0.00000000  0.10000000  0.20000000  2.000000e-03
  0.00000000  0.10000000  0.40000000  2.000000e-03
  0.00000000  0.10000000  0.60000000  2.000000e-03
  0.00000000  0.10000000  0.80000000  2.000000e-03
  0.00000000  0.20000000  0.00000000  2.000000e-03
  0.00000000  0.20000000  0.20000000  2.000000e-03
  0.00000000  0.20000000  0.40000000  2.000000e-03
  0.00000000  0.20000000  0.60000000  2.000000e-03
  0.00000000  0.20000000  0.80000000  2.000000e-03
  0.00000000  0.30000000  0.00000000  2.000000e-03
  0.00000000  0.30000000  0.20000000  2.000000e-03
  0.00000000  0.30000000  0.40000000  2.000000e-03
  0.00000000  0.30000000  0.60000000  2.000000e-03
  0.00000000  0.30000000  0.80000000  2.000000e-03
  0.00000000  0.40000000  0.00000000  2.000000e-03
  0.00000000  0.40000000  0.20000000  2.000000e-03
  0.00000000  0.40000000  0.40000000  2.000000e-03
  0.00000000  0.40000000  0.60000000  2.000000e-03
  0.00000000  0.40000000  0.80000000  2.000000e-03
  0.00000000  0.50000000  0.00000000  2.000000e-03
  0.00000000  0.50000000  0.20000000  2.000000e-03
  0.00000000  0.50000000  0.40000000  2.000000e-03
  0.00000000  0.50000000  0.60000000  2.000000e-03
  0.00000000  0.50000000  0.80000000  2.000000e-03
  0.00000000  0.60000000  0.00000000  2.000000e-03
  0.00000000  0.60000000  0.20000000  2.000000e-03
  0.00000000  0.60000000  0.40000000  2.000000e-03
  0.00000000  0.60000000  0.60000000  2.000000e-03
  0.00000000  0.60000000  0.80000000  2.000000e-03
  0.00000000  0.70000000  0.00000000  2.000000e-03
  0.00000000  0.70000000  0.20000000  2.000000e-03
  0.00000000  0.70000000  0.40000000  2.000000e-03
  0.00000000  0.70000000  0.60000000  2.000000e-03
  0.00000000  0.70000000  0.80000000  2.000000e-03
  0.00000000  0.80000000  0.00000000  2.000000e-03
  0.00000000  0.80000000  0.20000000  2.000000e-03
  0.00000000  0.80000000  0.40000000  2.000000e-03
  0.00000000  0.80000000  0.60000000  2.000000e-03
  0.00000000  0.80000000  0.80000000  2.000000e-03
  0.00000000  0.90000000  0.00000000  2.000000e-03
  0.00000000  0.90000000  0.20000000  2.000000e-03
  0.00000000  0.90000000  0.40000000  2.000000e-03
  0.00000000  0.90000000  0.60000000  2.000000e-03
  0.00000000  0.90000000  0.80000000  2.000000e-03
  0.10000000  0.00000000  0.00000000  2.000000e-03
  0.10000000  0.00000000  0.20000000  2.000000e-03
  0.10000000  0.00000000  0.40000000  2.000000e-03
  0.10000000  0.00000000  0.60000000  2.000000e-03
  0.10000000  0.00000000  0.80000000  2.000000e-03
  0.10000000  0.10000000  0.00000000  2.000000e-03
  0.10000000  0.10000000  0.20000000  2.000000e-03
  0.10000000  0.10000000  0.40000000  2.000000e-03
  0.10000000  0.10000000  0.60000000  2.000000e-03
  0.10000000  0.10000000  0.80000000  2.000000e-03
  0.10000000  0.20000000  0.00000000  2.000000e-03
  0.10000000  0.20000000  0.20000000  2.000000e-03
  0.10000000  0.20000000  0.40000000  2.000000e-03
  0.10000000  0.20000000  0.60000000  2.000000e-03
  0.10000000  0.20000000  0.80000000  2.000000e-03
  0.10000000  0.30000000  0.00000000  2.000000e-03
  0.10000000  0.30000000  0.20000000  2.000000e-03
  0.10000000  0.30000000  0.40000000  2.000000e-03
  0.10000000  0.30000000  0.60000000  2.000000e-03
  0.10000000  0.30000000  0.80000000  2.000000e-03
  0.10000000  0.40000000  0.00000000  2.000000e-03
  0.10000000  0.40000000  0.20000000  2.000000e-03
  0.10000000  0.40000000  0.40000000  2.000000e-03
  0.10000000  0.40000000  0.60000000  2.000000e-03
  0.10000000  0.40000000  0.80000000  2.000000e-03
  0.10000000  0.50000000  0.00000000  2.000000e-03
  0.10000000  0.50000000  0.20000000  2.000000e-03
  0.10000000  0.50000000  0.40000000  2.000000e-03
  0.10000000  0.50000000  0.60000000  2.000000e-03
  0.10000000  0.50000000  0.80000000  2.000000e-03
  0.10000000  0.60000000  0.00000000  2.000000e-03
  0.10000000  0.60000000  0.20000000  2.000000e-03
  0.10000000  0.60000000  0.40000000  2.000000e-03
  0.10000000  0.60000000  0.60000000  2.000000e-03
  0.10000000  0.60000000  0.80000000  2.000000e-03
  0.10000000  0.70000000  0.00000000  2.000000e-03
  0.10000000  0.70000000  0.20000000  2.000000e-03
  0.10000000  0.70000000  0.40000000  2.000000e-03
  0.10000000  0.70000000  0.60000000  2.000000e-03
  0.10000000  0.70000000  0.80000000  2.000000e-03
  0.10000000  0.80000000  0.00000000  2.000000e-03
  0.10000000  0.80000000  0.20000000  2.000000e-03
  0.10000000  0.80000000  0.40000000  2.000000e-03
  0.10000000  0.80000000  0.60000000  2.000000e-03
  0.10000000  0.80000000  0.80000000  2.000000e-03
  0.10000000  0.90000000  0.00000000  2.000000e-03
  0.10000000  0.90000000  0.20000000  2.000000e-03
  0.10000000  0.90000000  0.40000000  2.000000e-03
  0.10000000  0.90000000  0.60000000  2.000000e-03
  0.10000000  0.90000000  0.80000000  2.000000e-03
  0.20000000  0.00000000  0.00000000  2.000000e-03
  0.20000000  0.00000000  0.20000000  2.000000e-03
  0.20000000  0.00000000  0.40000000  2.000000e-03
  0.20000000  0.00000000  0.60000000  2.000000e-03
  0.20000000  0.00000000  0.80000000  2.000000e-03
  0.20000000  0.10000000  0.00000000  2.000000e-03
  0.20000000  0.10000000  0.20000000  2.000000e-03
  0.20000000  0.10000000  0.40000000  2.000000e-03
  0.20000000  0.10000000  0.60000000  2.000000e-03
  0.20000000  0.10000000  0.80000000  2.000000e-03
  0.20000000  0.20000000  0.00000000  2.000000e-03
  0.20000000  0.20000000  0.20000000  2.000000e-03
  0.20000000  0.20000000  0.40000000  2.000000e-03
  0.20000000  0.20000000  0.60000000  2.000000e-03
  0.20000000  0.20000000  0.80000000  2.000000e-03
  0.20000000  0.30000000  0.00000000  2.000000e-03
  0.20000000  0.30000000  0.20000000  2.000000e-03
  0.20000000  0.30000000  0.40000000  2.000000e-03
  0.20000000  0.30000000  0.60000000  2.000000e-03
  0.20000000  0.30000000  0.80000000  2.000000e-03
  0.20000000  0.40000000  0.00000000  2.000000e-03
  0.20000000  0.40000000  0.20000000  2.000000e-03
  0.20000000  0.40000000  0.40000000  2.000000e-03
  0.20000000  0.40000000  0.60000000  2.000000e-03
  0.20000000  0.40000000  0.80000000  2.000000e-03
  0.20000000  0.50000000  0.00000000  2.000000e-03
  0.20000000  0.50000000  0.20000000  2.000000e-03
  0.20000000  0.50000000  0.40000000  2.000000e-03
  0.20000000  0.50000000  0.60000000  2.000000e-03
  0.20000000  0.50000000  0.80000000  2.000000e-03
  0.20000000  0.60000000  0.00000000  2.000000e-03
  0.20000000  0.60000000  0.20000000  2.000000e-03
  0.20000000  0.60000000  0.40000000  2.000000e-03
  0.20000000  0.60000000  0.60000000  2.000000e-03
  0.20000000  0.60000000  0.80000000  2.000000e-03
  0.20000000  0.70000000  0.00000000  2.000000e-03
  0.20000000  0.70000000  0.20000000  2.000000e-03
  0.20000000  0.70000000  0.40000000  2.000000e-03
  0.20000000  0.70000000  0.60000000  2.000000e-03
  0.20000000  0.70000000  0.80000000  2.000000e-03
  0.20000000  0.80000000  0.00000000  2.000000e-03
  0.20000000  0.80000000  0.20000000  2.000000e-03
  0.20000000  0.80000000  0.40000000  2.000000e-03
  0.20000000  0.80000000  0.60000000  2.000000e-03
  0.20000000  0.80000000  0.80000000  2.000000e-03
  0.20000000  0.90000000  0.00000000  2.000000e-03
  0.20000000  0.90000000  0.20000000  2.000000e-03
  0.20000000  0.90000000  0.40000000  2.000000e-03
  0.20000000  0.90000000  0.60000000  2.000000e-03
  0.20000000  0.90000000  0.80000000  2.000000e-03
  0.30000000  0.00000000  0.00000000  2.000000e-03
  0.30000000  0.00000000  0.20000000  2.000000e-03
  0.30000000  0.00000000  0.40000000  2.000000e-03
  0.30000000  0.00000000  0.60000000  2.000000e-03
  0.30000000  0.00000000  0.80000000  2.000000e-03
  0.30000000  0.10000000  0.00000000  2.000000e-03
  0.30000000  0.10000000  0.20000000  2.000000e-03
  0.30000000  0.10000000  0.40000000  2.000000e-03
  0.30000000  0.10000000  0.60000000  2.000000e-03
  0.30000000  0.10000000  0.80000000  2.000000e-03
  0.30000000  0.20000000  0.00000000  2.000000e-03
  0.30000000  0.20000000  0.20000000  2.000000e-03
  0.30000000  0.20000000  0.40000000  2.000000e-03
  0.30000000  0.20000000  0.60000000  2.000000e-03
  0.30000000  0.20000000  0.80000000  2.000000e-03
  0.30000000  0.30000000  0.00000000  2.000000e-03
  0.30000000  0.30000000  0.20000000  2.000000e-03
  0.30000000  0.30000000  0.40000000  2.000000e-03
  0.30000000  0.30000000  0.60000000  2.000000e-03
  0.30000000  0.30000000  0.80000000  2.000000e-03
  0.30000000  0.40000000  0.00000000  2.000000e-03
  0.30000000  0.40000000  0.20000000  2.000000e-03
  0.30000000  0.40000000  0.40000000  2.000000e-03
  0.30000000  0.40000000  0.60000000  2.000000e-03
  0.30000000  0.40000000  0.80000000  2.000000e-03
  0.30000000  0.50000000  0.00000000  2.000000e-03
  0.30000000  0.50000000  0.20000000  2.000000e-03
  0.30000000  0.50000000  0.40000000  2.000000e-03
  0.30000000  0.50000000  0.60000000  2.000000e-03
  0.30000000  0.50000000  0.80000000  2.000000e-03
  0.30000000  0.60000000  0.00000000  2.000000e-03
  0.30000000  0.60000000  0.20000000  2.000000e-03
  0.30000000  0.60000000  0.40000000  2.000000e-03
  0.30000000  0.60000000  0.60000000  2.000000e-03
  0.30000000  0.60000000  0.80000000  2.000000e-03
  0.30000000  0.70000000  0.00000000  2.000000e-03
  0.30000000  0.70000000  0.20000000  2.000000e-03
  0.30000000  0.70000000  0.40000000  2.000000e-03
  0.30000000  0.70000000  0.60000000  2.000000e-03
  0.30000000  0.70000000  0.80000000  2.000000e-03
  0.30000000  0.80000000  0.00000000  2.000000e-03
  0.30000000  0.80000000  0.20000000  2.000000e-03
  0.30000000  0.80000000  0.40000000  2.000000e-03
  0.30000000  0.80000000  0.60000000  2.000000e-03
  0.30000000  0.80000000  0.80000000  2.000000e-03
  0.30000000  0.90000000  0.00000000  2.000000e-03
  0.30000000  0.90000000  0.20000000  2.000000e-03
  0.30000000  0.90000000  0.40000000  2.000000e-03
  0.30000000  0.90000000  0.60000000  2.000000e-03
  0.30000000  0.90000000  0.80000000  2.000000e-03
  0.40000000  0.00000000  0.00000000  2.000000e-03
  0.40000000  0.00000000  0.20000000  2.000000e-03
  0.40000000  0.00000000  0.40000000  2.000000e-03
  0.40000000  0.00000000  0.60000000  2.000000e-03
  0.40000000  0.00000000  0.80000000  2.000000e-03
  0.40000000  0.10000000  0.00000000  2.000000e-03
  0.40000000  0.10000000  0.20000000  2.000000e-03
  0.40000000  0.10000000  0.40000000  2.000000e-03
  0.40000000  0.10000000  0.60000000  2.000000e-03
  0.40000000  0.10000000  0.80000000  2.000000e-03
  0.40000000  0.20000000  0.00000000  2.000000e-03
  0.40000000  0.20000000  0.20000000  2.000000e-03
  0.40000000  0.20000000  0.40000000  2.000000e-03
  0.40000000  0.20000000  0.60000000  2.000000e-03
  0.40000000  0.20000000  0.80000000  2.000000e-03
  0.40000000  0.30000000  0.00000000  2.000000e-03
  0.40000000  0.30000000  0.20000000  2.000000e-03
  0.40000000  0.30000000  0.40000000  2.000000e-03
  0.40000000  0.30000000  0.60000000  2.000000e-03
  0.40000000  0.30000000  0.80000000  2.000000e-03
  0.40000000  0.40000000  0.00000000  2.000000e-03
  0.40000000  0.40000000  0.20000000  2.000000e-03
  0.40000000  0.40000000  0.40000000  2.000000e-03
  0.40000000  0.40000000  0.60000000  2.000000e-03
  0.40000000  0.40000000  0.80000000  2.000000e-03
  0.40000000  0.50000000  0.00000000  2.000000e-03
  0.40000000  0.50000000  0.20000000  2.000000e-03
  0.40000000  0.50000000  0.40000000  2.000000e-03
  0.40000000  0.50000000  0.60000000  2.000000e-03
  0.40000000  0.50000000  0.80000000  2.000000e-03
  0.40000000  0.60000000  0.00000000  2.000000e-03
  0.40000000  0.60000000  0.20000000  2.000000e-03
  0.40000000  0.60000000  0.40000000  2.000000e-03
  0.40000000  0.60000000  0.60000000  2.000000e-03
  0.40000000  0.60000000  0.80000000  2.000000e-03
  0.40000000  0.70000000  0.00000000  2.000000e-03
  0.40000000  0.70000000  0.20000000  2.000000e-03
  0.40000000  0.70000000  0.40000000  2.000000e-03
  0.40000000  0.70000000  0.60000000  2.000000e-03
  0.40000000  0.70000000  0.80000000  2.000000e-03
  0.40000000  0.80000000  0.00000000  2.000000e-03
  0.40000000  0.80000000  0.20000000  2.000000e-03
  0.40000000  0.80000000  0.40000000  2.000000e-03
  0.40000000  0.80000000  0.60000000  2.000000e-03
  0.40000000  0.80000000  0.80000000  2.000000e-03
  0.40000000  0.90000000  0.00000000  2.000000e-03
  0.40000000  0.90000000  0.20000000  2.000000e-03
  0.40000000  0.90000000  0.40000000  2.000000e-03
  0.40000000  0.90000000  0.60000000  2.000000e-03
  0.40000000  0.90000000  0.80000000  2.000000e-03
  0.50000000  0.00000000  0.00000000  2.000000e-03
  0.50000000  0.00000000  0.20000000  2.000000e-03
  0.50000000  0.00000000  0.40000000  2.000000e-03
  0.50000000  0.00000000  0.60000000  2.000000e-03
  0.50000000  0.00000000  0.80000000  2.000000e-03
  0.50000000  0.10000000  0.00000000  2.000000e-03
  0.50000000  0.10000000  0.20000000  2.000000e-03
  0.50000000  0.10000000  0.40000000  2.000000e-03
  0.50000000  0.10000000  0.60000000  2.000000e-03
  0.50000000  0.10000000  0.80000000  2.000000e-03
  0.50000000  0.20000000  0.00000000  2.000000e-03
  0.50000000  0.20000000  0.20000000  2.000000e-03
  0.50000000  0.20000000  0.40000000  2.000000e-03
  0.50000000  0.20000000  0.60000000  2.000000e-03
  0.50000000  0.20000000  0.80000000  2.000000e-03
  0.50000000  0.30000000  0.00000000  2.000000e-03
  0.50000000  0.30000000  0.20000000  2.000000e-03
  0.50000000  0.30000000  0.40000000  2.000000e-03
  0.50000000  0.30000000  0.60000000  2.000000e-03
  0.50000000  0.30000000  0.80000000  2.000000e-03
  0.50000000  0.40000000  0.00000000  2.000000e-03
  0.50000000  0.40000000  0.20000000  2.000000e-03
  0.50000000  0.40000000  0.40000000  2.000000e-03
  0.50000000  0.40000000  0.60000000  2.000000e-03
  0.50000000  0.40000000  0.80000000  2.000000e-03
  0.50000000  0.50000000  0.00000000  2.000000e-03
  0.50000000  0.50000000  0.20000000  2.000000e-03
  0.50000000  0.50000000  0.40000000  2.000000e-03
  0.50000000  0.50000000  0.60000000  2.000000e-03
  0.50000000  0.50000000  0.80000000  2.000000e-03
  0.50000000  0.60000000  0.00000000  2.000000e-03
  0.50000000  0.60000000  0.20000000  2.000000e-03
  0.50000000  0.60000000  0.40000000  2.000000e-03
  0.50000000  0.60000000  0.60000000  2.000000e-03
  0.50000000  0.60000000  0.80000000  2.000000e-03
  0.50000000  0.70000000  0.00000000  2.000000e-03
  0.50000000  0.70000000  0.20000000  2.000000e-03
  0.50000000  0.70000000  0.40000000  2.000000e-03
  0.50000000  0.70000000  0.60000000  2.000000e-03
  0.50000000  0.70000000  0.80000000  2.000000e-03
  0.50000000  0.80000000  0.00000000  2.000000e-03
  0.50000000  0.80000000  0.20000000  2.000000e-03
  0.50000000  0.80000000  0.40000000  2.000000e-03
  0.50000000  0.80000000  0.60000000  2.000000e-03
  0.50000000  0.80000000  0.80000000  2.000000e-03
  0.50000000  0.90000000  0.00000000  2.000000e-03
  0.50000000  0.90000000  0.20000000  2.000000e-03
  0.50000000  0.90000000  0.40000000  2.000000e-03
  0.50000000  0.90000000  0.60000000  2.000000e-03
  0.50000000  0.90000000  0.80000000  2.000000e-03
  0.60000000  0.00000000  0.00000000  2.000000e-03
  0.60000000  0.00000000  0.20000000  2.000000e-03
  0.60000000  0.00000000  0.40000000  2.000000e-03
  0.60000000  0.00000000  0.60000000  2.000000e-03
  0.60000000  0.00000000  0.80000000  2.000000e-03
  0.60000000  0.10000000  0.00000000  2.000000e-03
  0.60000000  0.10000000  0.20000000  2.000000e-03
  0.60000000  0.10000000  0.40000000  2.000000e-03
  0.60000000  0.10000000  0.60000000  2.000000e-03
  0.60000000  0.10000000  0.80000000  2.000000e-03
  0.60000000  0.20000000  0.00000000  2.000000e-03
  0.60000000  0.20000000  0.20000000  2.000000e-03
  0.60000000  0.20000000  0.40000000  2.000000e-03
  0.60000000  0.20000000  0.60000000  2.000000e-03
  0.60000000  0.20000000  0.80000000  2.000000e-03
  0.60000000  0.30000000  0.00000000  2.000000e-03
  0.60000000  0.30000000  0.20000000  2.000000e-03
  0.60000000  0.30000000  0.40000000  2.000000e-03
  0.60000000  0.30000000  0.60000000  2.000000e-03
  0.60000000  0.30000000  0.80000000  2.000000e-03
  0.60000000  0.40000000  0.00000000  2.000000e-03
  0.60000000  0.40000000  0.20000000  2.000000e-03
  0.60000000  0.40000000  0.40000000  2.000000e-03
  0.60000000  0.40000000  0.60000000  2.000000e-03
  0.60000000  0.40000000  0.80000000  2.000000e-03
  0.60000000  0.50000000  0.00000000  2.000000e-03
  0.60000000  0.50000000  0.20000000  2.000000e-03
  0.60000000  0.50000000  0.40000000  2.000000e-03
  0.60000000  0.50000000  0.60000000  2.000000e-03
  0.60000000  0.50000000  0.80000000  2.000000e-03
  0.60000000  0.60000000  0.00000000  2.000000e-03
  0.60000000  0.60000000  0.20000000  2.000000e-03
  0.60000000  0.60000000  0.40000000  2.000000e-03
  0.60000000  0.60000000  0.60000000  2.000000e-03
  0.60000000  0.60000000  0.80000000  2.000000e-03
  0.60000000  0.70000000  0.00000000  2.000000e-03
  0.60000000  0.70000000  0.20000000  2.000000e-03
  0.60000000  0.70000000  0.40000000  2.000000e-03
  0.60000000  0.70000000  0.60000000  2.000000e-03
  0.60000000  0.70000000  0.80000000  2.000000e-03
  0.60000000  0.80000000  0.00000000  2.000000e-03
  0.60000000  0.80000000  0.20000000  2.000000e-03
  0.60000000  0.80000000  0.40000000  2.000000e-03
  0.60000000  0.80000000  0.60000000  2.000000e-03
  0.60000000  0.80000000  0.80000000  2.000000e-03
  0.60000000  0.90000000  0.00000000  2.000000e-03
  0.60000000  0.90000000  0.20000000  2.000000e-03
  0.60000000  0.90000000  0.40000000  2.000000e-03
  0.60000000  0.90000000  0.60000000  2.000000e-03
  0.60000000  0.90000000  0.80000000  2.000000e-03
  0.70000000  0.00000000  0.00000000  2.000000e-03
  0.70000000  0.00000000  0.20000000  2.000000e-03
  0.70000000  0.00000000  0.40000000  2.000000e-03
  0.70000000  0.00000000  0.60000000  2.000000e-03
  0.70000000  0.00000000  0.80000000  2.000000e-03
  0.70000000  0.10000000  0.00000000  2.000000e-03
  0.70000000  0.10000000  0.20000000  2.000000e-03
  0.70000000  0.10000000  0.40000000  2.000000e-03
  0.70000000  0.10000000  0.60000000  2.000000e-03
  0.70000000  0.10000000  0.80000000  2.000000e-03
  0.70000000  0.20000000  0.00000000  2.000000e-03
  0.70000000  0.20000000  0.20000000  2.000000e-03
  0.70000000  0.20000000  0.40000000  2.000000e-03
  0.70000000  0.20000000  0.60000000  2.000000e-03
  0.70000000  0.20000000  0.80000000  2.000000e-03
  0.70000000  0.30000000  0.00000000  2.000000e-03
  0.70000000  0.30000000  0.20000000  2.000000e-03
  0.70000000  0.30000000  0.40000000  2.000000e-03
  0.70000000  0.30000000  0.60000000  2.000000e-03
  0.70000000  0.30000000  0.80000000  2.000000e-03
  0.70000000  0.40000000  0.00000000  2.000000e-03
  0.70000000  0.40000000  0.20000000  2.000000e-03
  0.70000000  0.40000000  0.40000000  2.000000e-03
  0.70000000  0.40000000  0.60000000  2.000000e-03
  0.70000000  0.40000000  0.80000000  2.000000e-03
  0.70000000  0.50000000  0.00000000  2.000000e-03
  0.70000000  0.50000000  0.20000000  2.000000e-03
  0.70000000  0.50000000  0.40000000  2.000000e-03
  0.70000000  0.50000000  0.60000000  2.000000e-03
  0.70000000  0.50000000  0.80000000  2.000000e-03
  0.70000000  0.60000000  0.00000000  2.000000e-03
  0.70000000  0.60000000  0.20000000  2.000000e-03
  0.70000000  0.60000000  0.40000000  2.000000e-03
  0.70000000  0.60000000  0.60000000  2.000000e-03
  0.70000000  0.60000000  0.80000000  2.000000e-03
  0.70000000  0.70000000  0.00000000  2.000000e-03
  0.70000000  0.70000000  0.20000000  2.000000e-03
  0.70000000  0.70000000  0.40000000  2.000000e-03
  0.70000000  0.70000000  0.60000000  2.000000e-03
  0.70000000  0.70000000  0.80000000  2.000000e-03
  0.70000000  0.80000000  0.00000000  2.000000e-03
  0.70000000  0.80000000  0.20000000  2.000000e-03
  0.70000000  0.80000000  0.40000000  2.000000e-03
  0.70000000  0.80000000  0.60000000  2.000000e-03
  0.70000000  0.80000000  0.80000000  2.000000e-03
  0.70000000  0.90000000  0.00000000  2.000000e-03
  0.70000000  0.90000000  0.20000000  2.000000e-03
  0.70000000  0.90000000  0.40000000  2.000000e-03
  0.70000000  0.90000000  0.60000000  2.000000e-03
  0.70000000  0.90000000  0.80000000  2.000000e-03
  0.80000000  0.00000000  0.00000000  2.000000e-03
  0.80000000  0.00000000  0.20000000  2.000000e-03
  0.80000000  0.00000000  0.40000000  2.000000e-03
  0.80000000  0.00000000  0.60000000  2.000000e-03
  0.80000000  0.00000000  0.80000000  2.000000e-03
  0.80000000  0.10000000  0.00000000  2.000000e-03
  0.80000000  0.10000000  0.20000000  2.000000e-03
  0.80000000  0.10000000  0.40000000  2.000000e-03
  0.80000000  0.10000000  0.60000000  2.000000e-03
  0.80000000  0.10000000  0.80000000  2.000000e-03
  0.80000000  0.20000000  0.00000000  2.000000e-03
  0.80000000  0.20000000  0.20000000  2.000000e-03
  0.80000000  0.20000000  0.40000000  2.000000e-03
  0.80000000  0.20000000  0.60000000  2.000000e-03
  0.80000000  0.20000000  0.80000000  2.000000e-03
  0.80000000  0.30000000  0.00000000  2.000000e-03
  0.80000000  0.30000000  0.20000000  2.000000e-03
  0.80000000  0.30000000  0.40000000  2.000000e-03
  0.80000000  0.30000000  0.60000000  2.000000e-03
  0.80000000  0.30000000  0.80000000  2.000000e-03
  0.80000000  0.40000000  0.00000000  2.000000e-03
  0.80000000  0.40000000  0.20000000  2.000000e-03
  0.80000000  0.40000000  0.40000000  2.000000e-03
  0.80000000  0.40000000  0.60000000  2.000000e-03
  0.80000000  0.40000000  0.80000000  2.000000e-03
  0.80000000  0.50000000  0.00000000  2.000000e-03
  0.80000000  0.50000000  0.20000000  2.000000e-03
  0.80000000  0.50000000  0.40000000  2.000000e-03
  0.80000000  0.50000000  0.60000000  2.000000e-03
  0.80000000  0.50000000  0.80000000  2.000000e-03
  0.80000000  0.60000000  0.00000000  2.000000e-03
  0.80000000  0.60000000  0.20000000  2.000000e-03
  0.80000000  0.60000000  0.40000000  2.000000e-03
  0.80000000  0.60000000  0.60000000  2.000000e-03
  0.80000000  0.60000000  0.80000000  2.000000e-03
  0.80000000  0.70000000  0.00000000  2.000000e-03
  0.80000000  0.70000000  0.20000000  2.000000e-03
  0.80000000  0.70000000  0.40000000  2.000000e-03
  0.80000000  0.70000000  0.60000000  2.000000e-03
  0.80000000  0.70000000  0.80000000  2.000000e-03
  0.80000000  0.80000000  0.00000000  2.000000e-03
  0.80000000  0.80000000  0.20000000  2.000000e-03
  0.80000000  0.80000000  0.40000000  2.000000e-03
  0.80000000  0.80000000  0.60000000  2.000000e-03
  0.80000000  0.80000000  0.80000000  2.000000e-03
  0.80000000  0.90000000  0.00000000  2.000000e-03
  0.80000000  0.90000000  0.20000000  2.000000e-03
  0.80000000  0.90000000  0.40000000  2.000000e-03
  0.80000000  0.90000000  0.60000000  2.000000e-03
  0.80000000  0.90000000  0.80000000  2.000000e-03
  0.90000000  0.00000000  0.00000000  2.000000e-03
  0.90000000  0.00000000  0.20000000  2.000000e-03
  0.90000000  0.00000000  0.40000000  2.000000e-03
  0.90000000  0.00000000  0.60000000  2.000000e-03
  0.90000000  0.00000000  0.80000000  2.000000e-03
  0.90000000  0.10000000  0.00000000  2.000000e-03
  0.90000000  0.10000000  0.20000000  2.000000e-03
  0.90000000  0.10000000  0.40000000  2.000000e-03
  0.90000000  0.10000000  0.60000000  2.000000e-03
  0.90000000  0.10000000  0.80000000  2.000000e-03
  0.90000000  0.20000000  0.00000000  2.000000e-03
  0.90000000  0.20000000  0.20000000  2.000000e-03
  0.90000000  0.20000000  0.40000000  2.000000e-03
  0.90000000  0.20000000  0.60000000  2.000000e-03
  0.90000000  0.20000000  0.80000000  2.000000e-03
  0.90000000  0.30000000  0.00000000  2.000000e-03
  0.90000000  0.30000000  0.20000000  2.000000e-03
  0.90000000  0.30000000  0.40000000  2.000000e-03
  0.90000000  0.30000000  0.60000000  2.000000e-03
  0.90000000  0.30000000  0.80000000  2.000000e-03
  0.90000000  0.40000000  0.00000000  2.000000e-03
  0.90000000  0.40000000  0.20000000  2.000000e-03
  0.90000000  0.40000000  0.40000000  2.000000e-03
  0.90000000  0.40000000  0.60000000  2.000000e-03
  0.90000000  0.40000000  0.80000000  2.000000e-03
  0.90000000  0.50000000  0.00000000  2.000000e-03
  0.90000000  0.50000000  0.20000000  2.000000e-03
  0.90000000  0.50000000  0.40000000  2.000000e-03
  0.90000000  0.50000000  0.60000000  2.000000e-03
  0.90000000  0.50000000  0.80000000  2.000000e-03
  0.90000000  0.60000000  0.00000000  2.000000e-03
  0.90000000  0.60000000  0.20000000  2.000000e-03
  0.90000000  0.60000000  0.40000000  2.000000e-03
  0.90000000  0.60000000  0.60000000  2.000000e-03
  0.90000000  0.60000000  0.80000000  2.000000e-03
  0.90000000  0.70000000  0.00000000  2.000000e-03
  0.90000000  0.70000000  0.20000000  2.000000e-03
  0.90000000  0.70000000  0.40000000  2.000000e-03
  0.90000000  0.70000000  0.60000000  2.000000e-03
  0.90000000  0.70000000  0.80000000  2.000000e-03
  0.90000000  0.80000000  0.00000000  2.000000e-03
  0.90000000  0.80000000  0.20000000  2.000000e-03
  0.90000000  0.80000000  0.40000000  2.000000e-03
  0.90000000  0.80000000  0.60000000  2.000000e-03
  0.90000000  0.80000000  0.80000000  2.000000e-03
  0.90000000  0.90000000  0.00000000  2.000000e-03
  0.90000000  0.90000000  0.20000000  2.000000e-03
  0.90000000  0.90000000  0.40000000  2.000000e-03
  0.90000000  0.90000000  0.60000000  2.000000e-03
  0.90000000  0.90000000  0.80000000  2.000000e-03
end kpoints

Begin Kpoint_Path
A1  0.27858984  0.19282032   0.5000000000  B1   0.13425227   0.48149546   0.5000000000
End Kpoint_Path
